5 5
1 4 4 56 2 41 3 67 0 48
1 86 3 58 4 39 2 25 0 60
0 86 3 47 2 98 1 61 4 84
4 27 3 96 0 42 2 52 1 93
1 48 0 32 2 24 3 3 4 27
-1
0 3 5
0 1 3 5
0 3 5
0 1 5
0 1 4 5
-2
106 336
92 184 369
256 559
41 417
63 134 176

422 8
10 21 17 4 9
0 20 5 13 19
2 22 12 18 8
16 11 3 23 6
15 1 24 7 14
